c 95_3_checker_6cl.cnf
c
c field = 95
c formula set type = 3_checker_6cl
c
p cnf 6 58
182 
184 
186 
-191 
-180 
-192 
183 
185 
187 
-190 
-181 
-193 
184 
186 
190 
-183 
-180 
-192 
185 
187 
191 
-182 
-181 
-193 
184 
186 
190 
-193 
-182 
-194 
185 
187 
191 
-192 
-183 
-195 
186 
190 
192 
-185 
-182 
-194 
187 
191 
193 
-184 
-183 
-195 
186 
190 
192 
-195 
-184 
-196 
187 
191 
193 
-194 
-185 
-197 
190 
192 
194 
-187 
-184 
-196 
191 
193 
195 
-186 
-185 
-197 
190 
192 
194 
-197 
-186 
-198 
191 
193 
195 
-196 
-187 
-199 
98 
128 
158 
-69 
-38 
-218 
99 
129 
159 
-68 
-39 
-219 
98 
128 
158 
-219 
-68 
-248 
99 
129 
159 
-218 
-69 
-249 
128 
158 
218 
-99 
-68 
-248 
129 
159 
219 
-98 
-69 
-249 
128 
158 
218 
-249 
-98 
-278 
129 
159 
219 
-248 
-99 
-279 
158 
218 
248 
-129 
-98 
-278 
159 
219 
249 
-128 
-99 
-279 
158 
218 
248 
-279 
-128 
-308 
159 
219 
249 
-278 
-129 
-309 
218 
248 
278 
-159 
-128 
-308 
219 
249 
279 
-158 
-129 
-309 
218 
248 
278 
-309 
-158 
-338 
219 
249 
279 
-308 
-159 
-339 
92 
124 
156 
-221 
-60 
-252 
93 
125 
157 
-220 
-61 
-253 
124 
156 
220 
-93 
-60 
-252 
125 
157 
221 
-92 
-61 
-253 
124 
156 
220 
-253 
-92 
-284 
125 
157 
221 
-252 
-93 
-285 
156 
220 
252 
-125 
-92 
-284 
157 
221 
253 
-124 
-93 
-285 
156 
220 
252 
-285 
-124 
-316 
157 
221 
253 
-284 
-125 
-317 
220 
252 
284 
-157 
-124 
-316 
221 
253 
285 
-156 
-125 
-317 
220 
252 
284 
-317 
-156 
-348 
221 
253 
285 
-316 
-157 
-349 
104 
132 
160 
-77 
-48 
-216 
105 
133 
161 
-76 
-49 
-217 
104 
132 
160 
-217 
-76 
-244 
105 
133 
161 
-216 
-77 
-245 
132 
160 
216 
-105 
-76 
-244 
133 
161 
217 
-104 
-77 
-245 
132 
160 
216 
-245 
-104 
-272 
133 
161 
217 
-244 
-105 
-273 
160 
216 
244 
-133 
-104 
-272 
161 
217 
245 
-132 
-105 
-273 
160 
216 
244 
-273 
-132 
-300 
161 
217 
245 
-272 
-133 
-301 
216 
244 
272 
-161 
-132 
-300 
217 
245 
273 
-160 
-133 
-301 
